(set-info :smt-lib-version 2.6)
(set-logic QF_LRA)
(set-info :source |
SAL benchmark suite.  Created at SRI by Bruno Dutertre, John Rushby, Maria
Sorea, and Leonardo de Moura.  Contact demoura@csl.sri.com for more
information.

This benchmark was automatically translated into SMT-LIB format from
CVC format using CVC Lite
|)
(set-info :category "industrial")
(set-info :status unsat)
(declare-fun x_0 () Bool)
(declare-fun x_1 () Bool)
(declare-fun x_2 () Bool)
(declare-fun x_3 () Bool)
(declare-fun x_4 () Bool)
(declare-fun x_5 () Bool)
(declare-fun x_6 () Bool)
(declare-fun x_7 () Bool)
(declare-fun x_8 () Bool)
(declare-fun x_9 () Real)
(declare-fun x_10 () Real)
(declare-fun x_11 () Bool)
(declare-fun x_12 () Real)
(declare-fun x_13 () Real)
(declare-fun x_14 () Real)
(declare-fun x_15 () Bool)
(declare-fun x_16 () Bool)
(declare-fun x_17 () Bool)
(declare-fun x_18 () Bool)
(declare-fun x_19 () Real)
(declare-fun x_20 () Bool)
(declare-fun x_21 () Real)
(declare-fun x_22 () Real)
(declare-fun x_23 () Bool)
(declare-fun x_24 () Bool)
(declare-fun x_25 () Bool)
(declare-fun x_26 () Real)
(declare-fun x_27 () Bool)
(declare-fun x_28 () Real)
(declare-fun x_29 () Real)
(declare-fun x_30 () Real)
(declare-fun x_31 () Bool)
(declare-fun x_32 () Bool)
(declare-fun x_33 () Bool)
(declare-fun x_34 () Real)
(declare-fun x_35 () Bool)
(declare-fun x_36 () Bool)
(declare-fun x_37 () Bool)
(declare-fun x_38 () Real)
(declare-fun x_39 () Bool)
(declare-fun x_40 () Bool)
(declare-fun x_41 () Bool)
(declare-fun x_42 () Bool)
(declare-fun x_43 () Bool)
(declare-fun x_44 () Bool)
(declare-fun x_45 () Bool)
(declare-fun x_46 () Bool)
(declare-fun x_47 () Bool)
(declare-fun x_48 () Real)
(declare-fun x_49 () Bool)
(declare-fun x_50 () Bool)
(declare-fun x_51 () Real)
(declare-fun x_52 () Bool)
(declare-fun x_53 () Real)
(declare-fun x_54 () Bool)
(declare-fun x_55 () Real)
(declare-fun x_56 () Bool)
(declare-fun x_57 () Bool)
(declare-fun x_58 () Real)
(declare-fun x_59 () Real)
(declare-fun x_60 () Bool)
(declare-fun x_61 () Real)
(declare-fun x_62 () Bool)
(declare-fun x_63 () Bool)
(declare-fun x_64 () Real)
(declare-fun x_65 () Real)
(declare-fun x_66 () Real)
(declare-fun x_67 () Real)
(declare-fun x_68 () Bool)
(declare-fun x_69 () Real)
(declare-fun x_70 () Real)
(declare-fun x_71 () Bool)
(declare-fun x_72 () Real)
(declare-fun x_73 () Bool)
(declare-fun x_74 () Real)
(declare-fun x_75 () Bool)
(declare-fun x_76 () Bool)
(declare-fun x_77 () Bool)
(declare-fun x_78 () Real)
(declare-fun x_79 () Bool)
(declare-fun x_80 () Bool)
(declare-fun x_81 () Bool)
(declare-fun x_82 () Bool)
(declare-fun x_83 () Bool)
(declare-fun x_84 () Bool)
(declare-fun x_85 () Bool)
(declare-fun x_86 () Bool)
(declare-fun x_87 () Bool)
(declare-fun x_88 () Real)
(declare-fun x_89 () Bool)
(declare-fun x_90 () Bool)
(declare-fun x_91 () Real)
(declare-fun x_92 () Bool)
(declare-fun x_93 () Real)
(declare-fun x_94 () Bool)
(declare-fun x_95 () Real)
(declare-fun x_96 () Bool)
(declare-fun x_97 () Bool)
(declare-fun x_98 () Real)
(declare-fun x_99 () Real)
(declare-fun x_100 () Bool)
(declare-fun x_101 () Real)
(declare-fun x_102 () Bool)
(declare-fun x_103 () Bool)
(declare-fun x_104 () Real)
(declare-fun x_105 () Real)
(declare-fun x_106 () Real)
(declare-fun x_107 () Real)
(declare-fun x_108 () Bool)
(declare-fun x_109 () Real)
(declare-fun x_110 () Real)
(declare-fun x_111 () Bool)
(declare-fun x_112 () Real)
(declare-fun x_113 () Bool)
(declare-fun x_114 () Real)
(declare-fun x_115 () Bool)
(declare-fun x_116 () Bool)
(declare-fun x_117 () Bool)
(declare-fun x_118 () Real)
(declare-fun x_119 () Bool)
(declare-fun x_120 () Bool)
(declare-fun x_121 () Bool)
(declare-fun x_122 () Bool)
(declare-fun x_123 () Bool)
(declare-fun x_124 () Bool)
(declare-fun x_125 () Bool)
(declare-fun x_126 () Bool)
(declare-fun x_127 () Bool)
(declare-fun x_128 () Real)
(declare-fun x_129 () Bool)
(declare-fun x_130 () Bool)
(declare-fun x_131 () Real)
(declare-fun x_132 () Bool)
(declare-fun x_133 () Real)
(declare-fun x_134 () Bool)
(declare-fun x_135 () Real)
(declare-fun x_136 () Bool)
(declare-fun x_137 () Bool)
(declare-fun x_138 () Real)
(declare-fun x_139 () Real)
(declare-fun x_140 () Bool)
(declare-fun x_141 () Real)
(declare-fun x_142 () Bool)
(declare-fun x_143 () Bool)
(declare-fun x_144 () Real)
(declare-fun x_145 () Real)
(declare-fun x_146 () Real)
(declare-fun x_147 () Real)
(declare-fun x_148 () Bool)
(declare-fun x_149 () Real)
(declare-fun x_150 () Real)
(declare-fun x_151 () Bool)
(declare-fun x_152 () Real)
(assert (let ((?v_34 (< x_93 20)) (?v_32 (< x_93 50)) (?v_62 (<= x_91 x_99)) (?v_25 (< x_74 x_105)) (?v_26 (= x_113 false)) (?v_19 (not x_89))) (let ((?v_24 (and ?v_19 x_90)) (?v_23 (= x_114 x_74)) (?v_63 (not x_116))) (let ((?v_68 (and x_115 ?v_63)) (?v_29 (and (= x_117 false) (= x_118 x_10))) (?v_67 (not x_75)) (?v_58 (not x_76))) (let ((?v_61 (and ?v_67 ?v_58)) (?v_2 (not x_120))) (let ((?v_4 (and x_119 ?v_2)) (?v_3 (not x_121))) (let ((?v_10 (and (and ?v_4 ?v_3) x_122)) (?v_5 (or x_119 x_120)) (?v_1 (not x_122)) (?v_6 (and x_119 x_120))) (let ((?v_11 (and (and ?v_6 x_121) ?v_1)) (?v_7 (or x_119 ?v_2)) (?v_13 (and (and ?v_4 x_121) ?v_1)) (?v_15 (and (and ?v_6 ?v_3) ?v_1))) (let ((?v_37 (or ?v_10 (and (or (or ?v_5 x_121) ?v_1) (or ?v_11 (and (or (or ?v_7 ?v_3) x_122) (or ?v_13 (and (or (or ?v_5 ?v_3) x_122) (or ?v_15 (and (and (and (and (or (or ?v_7 x_121) x_122) x_119) ?v_2) ?v_3) ?v_1))))))))) (?v_8 (and (and (and (= x_123 false) (= x_124 x_5)) (= x_125 x_6)) (= x_126 x_7))) (?v_55 (= x_128 x_10))) (let ((?v_60 (and (= x_127 false) ?v_55)) (?v_0 (not x_90))) (let ((?v_41 (or ?v_19 ?v_0)) (?v_39 (or x_89 ?v_0)) (?v_28 (not x_130))) (let ((?v_20 (and x_129 ?v_28)) (?v_52 (not x_96))) (let ((?v_56 (or ?v_52 x_97)) (?v_43 (< x_93 10)) (?v_30 (and x_89 x_90)) (?v_65 (= x_131 x_91)) (?v_45 (not x_97))) (let ((?v_49 (and x_96 ?v_45)) (?v_47 (= x_132 false)) (?v_40 (<= x_93 0)) (?v_18 (= x_133 x_93)) (?v_48 (and (= x_134 false) (= x_135 x_10))) (?v_54 (not x_137))) (let ((?v_46 (and x_136 ?v_54)) (?v_51 (= x_138 x_98)) (?v_69 (or x_75 x_76)) (?v_66 (= x_139 x_99)) (?v_64 (and (= x_140 false) (= x_141 x_10))) (?v_9 (= x_142 false)) (?v_50 (and (= x_143 false) (= x_144 x_10))) (?v_22 (= x_145 x_105)) (?v_31 (and x_129 x_130)) (?v_42 (not ?v_32)) (?v_44 (not ?v_34)) (?v_70 (not ?v_62)) (?v_21 (= x_113 true)) (?v_38 (not ?v_25)) (?v_102 (< x_53 20)) (?v_100 (< x_53 50)) (?v_126 (<= x_51 x_59)) (?v_96 (< x_34 x_65)) (?v_97 (= x_73 false)) (?v_90 (not x_49))) (let ((?v_95 (and ?v_90 x_50)) (?v_94 (= x_74 x_34)) (?v_131 (and x_75 ?v_58)) (?v_98 (and (= x_77 false) (= x_78 x_10))) (?v_130 (not x_35)) (?v_123 (not x_36))) (let ((?v_125 (and ?v_130 ?v_123)) (?v_73 (not x_80))) (let ((?v_75 (and x_79 ?v_73)) (?v_74 (not x_81))) (let ((?v_81 (and (and ?v_75 ?v_74) x_82)) (?v_76 (or x_79 x_80)) (?v_72 (not x_82)) (?v_77 (and x_79 x_80))) (let ((?v_82 (and (and ?v_77 x_81) ?v_72)) (?v_78 (or x_79 ?v_73)) (?v_84 (and (and ?v_75 x_81) ?v_72)) (?v_86 (and (and ?v_77 ?v_74) ?v_72))) (let ((?v_105 (or ?v_81 (and (or (or ?v_76 x_81) ?v_72) (or ?v_82 (and (or (or ?v_78 ?v_74) x_82) (or ?v_84 (and (or (or ?v_76 ?v_74) x_82) (or ?v_86 (and (and (and (and (or (or ?v_78 x_81) x_82) x_79) ?v_73) ?v_74) ?v_72))))))))) (?v_79 (and (and (and (= x_83 false) (= x_84 x_5)) (= x_85 x_6)) (= x_86 x_7))) (?v_120 (= x_88 x_10))) (let ((?v_124 (and (= x_87 false) ?v_120)) (?v_71 (not x_50))) (let ((?v_109 (or ?v_90 ?v_71)) (?v_107 (or x_49 ?v_71)) (?v_91 (and x_89 ?v_0)) (?v_119 (not x_56))) (let ((?v_121 (or ?v_119 x_57)) (?v_111 (< x_53 10)) (?v_99 (and x_49 x_50)) (?v_128 (= x_91 x_51)) (?v_113 (not x_57))) (let ((?v_116 (and x_56 ?v_113)) (?v_114 (= x_92 false)) (?v_108 (<= x_53 0)) (?v_89 (= x_93 x_53)) (?v_115 (and (= x_94 false) (= x_95 x_10))) (?v_118 (= x_98 x_58)) (?v_132 (or x_35 x_36)) (?v_129 (= x_99 x_59)) (?v_127 (and (= x_100 false) (= x_101 x_10))) (?v_80 (= x_102 false)) (?v_117 (and (= x_103 false) (= x_104 x_10))) (?v_93 (= x_105 x_65)) (?v_110 (not ?v_100)) (?v_112 (not ?v_102)) (?v_133 (not ?v_126)) (?v_92 (= x_73 true)) (?v_106 (not ?v_96)) (?v_165 (< x_12 20)) (?v_163 (< x_12 50)) (?v_189 (<= x_29 x_30)) (?v_159 (< x_13 x_14)) (?v_160 (= x_33 false)) (?v_134 (not x_15))) (let ((?v_158 (and ?v_134 x_16)) (?v_157 (= x_34 x_13)) (?v_194 (and x_35 ?v_123)) (?v_161 (and (= x_37 false) (= x_38 x_10))) (?v_193 (not x_31)) (?v_186 (not x_32))) (let ((?v_188 (and ?v_193 ?v_186)) (?v_137 (not x_40))) (let ((?v_139 (and x_39 ?v_137)) (?v_138 (not x_41))) (let ((?v_145 (and (and ?v_139 ?v_138) x_42)) (?v_140 (or x_39 x_40)) (?v_136 (not x_42)) (?v_141 (and x_39 x_40))) (let ((?v_146 (and (and ?v_141 x_41) ?v_136)) (?v_142 (or x_39 ?v_137)) (?v_148 (and (and ?v_139 x_41) ?v_136)) (?v_150 (and (and ?v_141 ?v_138) ?v_136))) (let ((?v_168 (or ?v_145 (and (or (or ?v_140 x_41) ?v_136) (or ?v_146 (and (or (or ?v_142 ?v_138) x_42) (or ?v_148 (and (or (or ?v_140 ?v_138) x_42) (or ?v_150 (and (and (and (and (or (or ?v_142 x_41) x_42) x_39) ?v_137) ?v_138) ?v_136))))))))) (?v_143 (and (and (and (= x_43 false) (= x_44 x_5)) (= x_45 x_6)) (= x_46 x_7))) (?v_183 (= x_48 x_10))) (let ((?v_187 (and (= x_47 false) ?v_183)) (?v_135 (not x_16))) (let ((?v_172 (or ?v_134 ?v_135)) (?v_170 (or x_15 ?v_135)) (?v_154 (and x_49 ?v_71)) (?v_176 (not x_23))) (let ((?v_184 (or ?v_176 x_24)) (?v_174 (< x_12 10)) (?v_162 (and x_15 x_16)) (?v_191 (= x_51 x_29)) (?v_177 (not x_24))) (let ((?v_180 (and x_23 ?v_177)) (?v_178 (= x_52 false)) (?v_171 (<= x_12 0)) (?v_153 (= x_53 x_12)) (?v_179 (and (= x_54 false) (= x_55 x_10))) (?v_182 (= x_58 x_22)) (?v_196 (or x_31 x_32)) (?v_192 (= x_59 x_30)) (?v_190 (and (= x_60 false) (= x_61 x_10))) (?v_144 (= x_62 false)) (?v_181 (and (= x_63 false) (= x_64 x_10))) (?v_156 (= x_65 x_14)) (?v_173 (not ?v_163)) (?v_175 (not ?v_165)) (?v_197 (not ?v_189)) (?v_155 (= x_33 true)) (?v_169 (not ?v_159)) (?v_195 (not x_20)) (?v_27 (not x_129)) (?v_12 (not x_119))) (let ((?v_14 (and ?v_12 ?v_2)) (?v_16 (and ?v_12 x_120))) (let ((?v_17 (ite ?v_10 4 (ite (and (and ?v_14 ?v_3) x_122) 4 (ite ?v_11 3 (ite (and (and ?v_16 x_121) ?v_1) 3 (ite ?v_13 2 (ite (and (and ?v_14 x_121) ?v_1) 2 (ite ?v_15 1 (ite (and (and ?v_16 ?v_3) ?v_1) 1 0))))))))) (?v_35 (not x_124)) (?v_33 (not x_126)) (?v_36 (not x_125)) (?v_57 (not x_127)) (?v_53 (not x_136)) (?v_59 (not x_115)) (?v_83 (not x_79))) (let ((?v_85 (and ?v_83 ?v_73)) (?v_87 (and ?v_83 x_80))) (let ((?v_88 (ite ?v_81 4 (ite (and (and ?v_85 ?v_74) x_82) 4 (ite ?v_82 3 (ite (and (and ?v_87 x_81) ?v_72) 3 (ite ?v_84 2 (ite (and (and ?v_85 x_81) ?v_72) 2 (ite ?v_86 1 (ite (and (and ?v_87 ?v_74) ?v_72) 1 0))))))))) (?v_103 (not x_84)) (?v_101 (not x_86)) (?v_104 (not x_85)) (?v_122 (not x_87)) (?v_147 (not x_39))) (let ((?v_149 (and ?v_147 ?v_137)) (?v_151 (and ?v_147 x_40))) (let ((?v_152 (ite ?v_145 4 (ite (and (and ?v_149 ?v_138) x_42) 4 (ite ?v_146 3 (ite (and (and ?v_151 x_41) ?v_136) 3 (ite ?v_148 2 (ite (and (and ?v_149 x_41) ?v_136) 2 (ite ?v_150 1 (ite (and (and ?v_151 ?v_138) ?v_136) 1 0))))))))) (?v_166 (not x_44)) (?v_164 (not x_46)) (?v_167 (not x_45)) (?v_185 (not x_47)) (?v_198 (not x_11))) (and (and (and (and (and (and (and (and (and (and (and (and (and (and (and (and (and (and (and (and (and (and (and (and (and (and (and (and (and (and (and (and (and (and (and (and (and (and (and (and (and (and (and (and (and (and (and (and (and (and (and (and (not x_0) true) (not x_1)) (and (and (= x_2 x_5) (= x_3 x_6)) (= x_4 x_7))) (not x_8)) (= x_9 x_10)) ?v_198) true) (= x_12 0)) (= x_13 0)) (= x_14 0)) (and ?v_134 ?v_135)) (not x_17)) true) (not x_18)) (= x_19 x_10)) ?v_195) (= x_21 x_10)) (= x_22 0)) (and ?v_176 x_24)) (not x_25)) (= x_26 x_10)) (not x_27)) (= x_28 x_10)) (= x_29 0)) (= x_30 0)) (and x_31 ?v_186)) (or (or (or (or (or (or (or (or (and (and (and (and (and (and (and (and (and (and (and (and (= x_146 0) ?v_19) ?v_0) x_140) ?v_20) x_117) (= x_118 x_141)) ?v_21) ?v_8) ?v_9) (= x_145 x_141)) ?v_18) ?v_23) (and (and (and (and (and (and (and (and (and (and (and (and (= x_146 1) x_89) ?v_0) ?v_37) ?v_27) x_130) ?v_8) ?v_26) ?v_29) ?v_9) (= x_114 (+ x_74 (* (ite (= ?v_17 4) 20 (ite (= ?v_17 3) 10 (ite (= ?v_17 2) 5 (ite (= ?v_17 1) 2 1)))) 10)))) ?v_22) ?v_18)) (and (and (and (and (and (and (and (and (and (and (and (= x_146 2) ?v_24) ?v_25) ?v_20) ?v_21) x_117) (= x_118 (- x_105 x_74))) ?v_8) ?v_9) ?v_22) ?v_18) ?v_23)) (and (and (and (and (and (and (and (and (and (and (and (= x_146 3) ?v_24) ?v_38) ?v_31) x_117) (= x_118 0)) x_142) ?v_8) ?v_26) (= x_133 (- x_74 x_105))) ?v_22) ?v_23)) (and (and (and (and (and (and (and (and (and (and (and (= x_146 4) ?v_30) ?v_40) ?v_27) ?v_28) ?v_8) ?v_26) ?v_29) ?v_9) (= x_114 0)) (= x_133 0)) (= x_145 0))) (and (and (and (and (and (and (and (and (and (and (and (and (and (= x_146 5) ?v_30) ?v_42) ?v_31) x_123) ?v_35) x_125) ?v_33) ?v_26) ?v_29) ?v_9) (= x_133 (- x_93 50))) ?v_22) ?v_23)) (and (and (and (and (and (and (and (and (and (and (and (and (and (and (= x_146 6) ?v_30) ?v_44) ?v_32) ?v_31) x_123) x_124) ?v_36) ?v_33) ?v_26) ?v_29) ?v_9) (= x_133 (- x_93 20))) ?v_22) ?v_23)) (and (and (and (and (and (and (and (and (and (and (and (and (and (and (= x_146 7) ?v_30) (not ?v_43)) ?v_34) ?v_31) x_123) ?v_35) ?v_36) ?v_33) ?v_26) ?v_29) ?v_9) (= x_133 (- x_93 10))) ?v_22) ?v_23)) (and (and (and (and (and (and (and (and (and (and (and (and (and (and (and (and (and (= x_146 8) (or (or x_89 x_90) (not x_140))) (or (or ?v_19 x_90) (not ?v_37))) (or ?v_39 ?v_38)) (or ?v_39 ?v_25)) (or ?v_41 (not ?v_40))) (or ?v_41 ?v_32)) (or (or ?v_41 ?v_34) ?v_42)) (or (or ?v_41 ?v_43) ?v_44)) ?v_26) ?v_8) ?v_29) ?v_9) (= x_129 x_89)) (= x_130 x_90)) ?v_22) ?v_18) ?v_23))) (or (or (or (or (and (and (and (and (and (and (and (and (= x_147 0) ?v_52) ?v_45) x_148) ?v_46) ?v_47) ?v_50) ?v_48) (= x_138 x_149)) (and (and (and (and (and (and (and (and (and (= x_147 1) ?v_49) ?v_57) ?v_55) ?v_46) x_143) (= x_144 x_98)) ?v_47) ?v_48) ?v_51)) (and (and (and (and (and (and (and (and (and (= x_147 2) ?v_49) x_127) ?v_53) x_137) x_134) (= x_135 x_128)) ?v_47) ?v_50) ?v_51)) (and (and (and (and (and (and (and (and (= x_147 3) ?v_52) x_97) ?v_53) ?v_54) x_132) ?v_50) ?v_48) ?v_51)) (and (and (and (and (and (and (and (and (and (and (= x_147 4) (or (or x_96 x_97) (not x_148))) (or (or ?v_56 x_127) (not ?v_55))) (or ?v_56 ?v_57)) (or x_96 ?v_45)) ?v_47) ?v_48) ?v_50) (= x_136 x_96)) (= x_137 x_97)) ?v_51))) (or (or (or (or (and (and (and (and (and (and (and (and (and (and (= x_150 0) x_75) ?v_58) x_103) x_151) ?v_59) ?v_63) ?v_64) ?v_60) (= x_131 x_152)) (= x_139 x_104)) (and (and (and (and (and (and (and (and (and (= x_150 1) ?v_61) ?v_70) ?v_59) x_116) x_140) (= x_141 (* (- x_91 x_99) 10))) ?v_60) ?v_65) ?v_66)) (and (and (and (and (and (and (and (and (= x_150 2) ?v_61) ?v_62) ?v_68) x_127) (= x_128 x_99)) ?v_64) ?v_65) ?v_66)) (and (and (and (and (and (and (and (and (and (= x_150 3) ?v_67) x_76) x_102) ?v_68) x_127) (= x_128 (+ x_91 10))) ?v_64) ?v_65) ?v_66)) (and (and (and (and (and (and (and (and (and (and (= x_150 4) (or (or (or ?v_67 x_76) (not x_103)) (not x_151))) (or ?v_69 ?v_62)) (or ?v_69 ?v_70)) (or (or x_75 ?v_58) (not x_102))) ?v_60) ?v_64) (= x_115 x_75)) (= x_116 x_76)) ?v_65) ?v_66))) (or (or (or (or (or (or (or (or (and (and (and (and (and (and (and (and (and (and (and (and (= x_106 0) ?v_90) ?v_71) x_100) ?v_91) x_77) (= x_78 x_101)) ?v_92) ?v_79) ?v_80) (= x_105 x_101)) ?v_89) ?v_94) (and (and (and (and (and (and (and (and (and (and (and (and (= x_106 1) x_49) ?v_71) ?v_105) ?v_19) x_90) ?v_79) ?v_97) ?v_98) ?v_80) (= x_74 (+ x_34 (* (ite (= ?v_88 4) 20 (ite (= ?v_88 3) 10 (ite (= ?v_88 2) 5 (ite (= ?v_88 1) 2 1)))) 10)))) ?v_93) ?v_89)) (and (and (and (and (and (and (and (and (and (and (and (= x_106 2) ?v_95) ?v_96) ?v_91) ?v_92) x_77) (= x_78 (- x_65 x_34))) ?v_79) ?v_80) ?v_93) ?v_89) ?v_94)) (and (and (and (and (and (and (and (and (and (and (and (= x_106 3) ?v_95) ?v_106) ?v_30) x_77) (= x_78 0)) x_102) ?v_79) ?v_97) (= x_93 (- x_34 x_65))) ?v_93) ?v_94)) (and (and (and (and (and (and (and (and (and (and (and (= x_106 4) ?v_99) ?v_108) ?v_19) ?v_0) ?v_79) ?v_97) ?v_98) ?v_80) (= x_74 0)) (= x_93 0)) (= x_105 0))) (and (and (and (and (and (and (and (and (and (and (and (and (and (= x_106 5) ?v_99) ?v_110) ?v_30) x_83) ?v_103) x_85) ?v_101) ?v_97) ?v_98) ?v_80) (= x_93 (- x_53 50))) ?v_93) ?v_94)) (and (and (and (and (and (and (and (and (and (and (and (and (and (and (= x_106 6) ?v_99) ?v_112) ?v_100) ?v_30) x_83) x_84) ?v_104) ?v_101) ?v_97) ?v_98) ?v_80) (= x_93 (- x_53 20))) ?v_93) ?v_94)) (and (and (and (and (and (and (and (and (and (and (and (and (and (and (= x_106 7) ?v_99) (not ?v_111)) ?v_102) ?v_30) x_83) ?v_103) ?v_104) ?v_101) ?v_97) ?v_98) ?v_80) (= x_93 (- x_53 10))) ?v_93) ?v_94)) (and (and (and (and (and (and (and (and (and (and (and (and (and (and (and (and (and (= x_106 8) (or (or x_49 x_50) (not x_100))) (or (or ?v_90 x_50) (not ?v_105))) (or ?v_107 ?v_106)) (or ?v_107 ?v_96)) (or ?v_109 (not ?v_108))) (or ?v_109 ?v_100)) (or (or ?v_109 ?v_102) ?v_110)) (or (or ?v_109 ?v_111) ?v_112)) ?v_97) ?v_79) ?v_98) ?v_80) (= x_89 x_49)) (= x_90 x_50)) ?v_93) ?v_89) ?v_94))) (or (or (or (or (and (and (and (and (and (and (and (and (= x_107 0) ?v_119) ?v_113) x_108) ?v_49) ?v_114) ?v_117) ?v_115) (= x_98 x_109)) (and (and (and (and (and (and (and (and (and (= x_107 1) ?v_116) ?v_122) ?v_120) ?v_49) x_103) (= x_104 x_58)) ?v_114) ?v_115) ?v_118)) (and (and (and (and (and (and (and (and (and (= x_107 2) ?v_116) x_87) ?v_52) x_97) x_94) (= x_95 x_88)) ?v_114) ?v_117) ?v_118)) (and (and (and (and (and (and (and (and (= x_107 3) ?v_119) x_57) ?v_52) ?v_45) x_92) ?v_117) ?v_115) ?v_118)) (and (and (and (and (and (and (and (and (and (and (= x_107 4) (or (or x_56 x_57) (not x_108))) (or (or ?v_121 x_87) (not ?v_120))) (or ?v_121 ?v_122)) (or x_56 ?v_113)) ?v_114) ?v_115) ?v_117) (= x_96 x_56)) (= x_97 x_57)) ?v_118))) (or (or (or (or (and (and (and (and (and (and (and (and (and (and (= x_110 0) x_35) ?v_123) x_63) x_111) ?v_67) ?v_58) ?v_127) ?v_124) (= x_91 x_112)) (= x_99 x_64)) (and (and (and (and (and (and (and (and (and (= x_110 1) ?v_125) ?v_133) ?v_67) x_76) x_100) (= x_101 (* (- x_51 x_59) 10))) ?v_124) ?v_128) ?v_129)) (and (and (and (and (and (and (and (and (= x_110 2) ?v_125) ?v_126) ?v_131) x_87) (= x_88 x_59)) ?v_127) ?v_128) ?v_129)) (and (and (and (and (and (and (and (and (and (= x_110 3) ?v_130) x_36) x_62) ?v_131) x_87) (= x_88 (+ x_51 10))) ?v_127) ?v_128) ?v_129)) (and (and (and (and (and (and (and (and (and (and (= x_110 4) (or (or (or ?v_130 x_36) (not x_63)) (not x_111))) (or ?v_132 ?v_126)) (or ?v_132 ?v_133)) (or (or x_35 ?v_123) (not x_62))) ?v_124) ?v_127) (= x_75 x_35)) (= x_76 x_36)) ?v_128) ?v_129))) (or (or (or (or (or (or (or (or (and (and (and (and (and (and (and (and (and (and (and (and (= x_66 0) ?v_134) ?v_135) x_60) ?v_154) x_37) (= x_38 x_61)) ?v_155) ?v_143) ?v_144) (= x_65 x_61)) ?v_153) ?v_157) (and (and (and (and (and (and (and (and (and (and (and (and (= x_66 1) x_15) ?v_135) ?v_168) ?v_90) x_50) ?v_143) ?v_160) ?v_161) ?v_144) (= x_34 (+ x_13 (* (ite (= ?v_152 4) 20 (ite (= ?v_152 3) 10 (ite (= ?v_152 2) 5 (ite (= ?v_152 1) 2 1)))) 10)))) ?v_156) ?v_153)) (and (and (and (and (and (and (and (and (and (and (and (= x_66 2) ?v_158) ?v_159) ?v_154) ?v_155) x_37) (= x_38 (- x_14 x_13))) ?v_143) ?v_144) ?v_156) ?v_153) ?v_157)) (and (and (and (and (and (and (and (and (and (and (and (= x_66 3) ?v_158) ?v_169) ?v_99) x_37) (= x_38 0)) x_62) ?v_143) ?v_160) (= x_53 (- x_13 x_14))) ?v_156) ?v_157)) (and (and (and (and (and (and (and (and (and (and (and (= x_66 4) ?v_162) ?v_171) ?v_90) ?v_71) ?v_143) ?v_160) ?v_161) ?v_144) (= x_34 0)) (= x_53 0)) (= x_65 0))) (and (and (and (and (and (and (and (and (and (and (and (and (and (= x_66 5) ?v_162) ?v_173) ?v_99) x_43) ?v_166) x_45) ?v_164) ?v_160) ?v_161) ?v_144) (= x_53 (- x_12 50))) ?v_156) ?v_157)) (and (and (and (and (and (and (and (and (and (and (and (and (and (and (= x_66 6) ?v_162) ?v_175) ?v_163) ?v_99) x_43) x_44) ?v_167) ?v_164) ?v_160) ?v_161) ?v_144) (= x_53 (- x_12 20))) ?v_156) ?v_157)) (and (and (and (and (and (and (and (and (and (and (and (and (and (and (= x_66 7) ?v_162) (not ?v_174)) ?v_165) ?v_99) x_43) ?v_166) ?v_167) ?v_164) ?v_160) ?v_161) ?v_144) (= x_53 (- x_12 10))) ?v_156) ?v_157)) (and (and (and (and (and (and (and (and (and (and (and (and (and (and (and (and (and (= x_66 8) (or (or x_15 x_16) (not x_60))) (or (or ?v_134 x_16) (not ?v_168))) (or ?v_170 ?v_169)) (or ?v_170 ?v_159)) (or ?v_172 (not ?v_171))) (or ?v_172 ?v_163)) (or (or ?v_172 ?v_165) ?v_173)) (or (or ?v_172 ?v_174) ?v_175)) ?v_160) ?v_143) ?v_161) ?v_144) (= x_49 x_15)) (= x_50 x_16)) ?v_156) ?v_153) ?v_157))) (or (or (or (or (and (and (and (and (and (and (and (and (= x_67 0) ?v_176) ?v_177) x_68) ?v_116) ?v_178) ?v_181) ?v_179) (= x_58 x_69)) (and (and (and (and (and (and (and (and (and (= x_67 1) ?v_180) ?v_185) ?v_183) ?v_116) x_63) (= x_64 x_22)) ?v_178) ?v_179) ?v_182)) (and (and (and (and (and (and (and (and (and (= x_67 2) ?v_180) x_47) ?v_119) x_57) x_54) (= x_55 x_48)) ?v_178) ?v_181) ?v_182)) (and (and (and (and (and (and (and (and (= x_67 3) ?v_176) x_24) ?v_119) ?v_113) x_52) ?v_181) ?v_179) ?v_182)) (and (and (and (and (and (and (and (and (and (and (= x_67 4) (or (or x_23 x_24) (not x_68))) (or (or ?v_184 x_47) (not ?v_183))) (or ?v_184 ?v_185)) (or x_23 ?v_177)) ?v_178) ?v_179) ?v_181) (= x_56 x_23)) (= x_57 x_24)) ?v_182))) (or (or (or (or (and (and (and (and (and (and (and (and (and (and (= x_70 0) x_31) ?v_186) x_20) x_71) ?v_130) ?v_123) ?v_190) ?v_187) (= x_51 x_72)) (= x_59 x_21)) (and (and (and (and (and (and (and (and (and (= x_70 1) ?v_188) ?v_197) ?v_130) x_36) x_60) (= x_61 (* (- x_29 x_30) 10))) ?v_187) ?v_191) ?v_192)) (and (and (and (and (and (and (and (and (= x_70 2) ?v_188) ?v_189) ?v_194) x_47) (= x_48 x_30)) ?v_190) ?v_191) ?v_192)) (and (and (and (and (and (and (and (and (and (= x_70 3) ?v_193) x_32) x_11) ?v_194) x_47) (= x_48 (+ x_29 10))) ?v_190) ?v_191) ?v_192)) (and (and (and (and (and (and (and (and (and (and (= x_70 4) (or (or (or ?v_193 x_32) ?v_195) (not x_71))) (or ?v_196 ?v_189)) (or ?v_196 ?v_197)) (or (or x_31 ?v_186) ?v_198)) ?v_187) ?v_190) (= x_35 x_31)) (= x_36 x_32)) ?v_191) ?v_192))) (or (or (or (not (<= x_139 0)) (not (<= x_99 0))) (not (<= x_59 0))) (not (<= x_30 0)))) (or (not x_4) (and (not x_3) (not x_2)))) (or (not x_7) (and (not x_6) (not x_5)))) (or ?v_177 ?v_176)) (or ?v_186 ?v_193)) (or ?v_123 ?v_130)) (or ?v_136 (and ?v_138 ?v_137))) (or ?v_164 (and ?v_167 ?v_166))) (or ?v_113 ?v_119)) (or ?v_58 ?v_67)) (or ?v_72 (and ?v_74 ?v_73))) (or ?v_101 (and ?v_104 ?v_103))) (or ?v_45 ?v_52)) (or ?v_63 ?v_59)) (or ?v_1 (and ?v_3 ?v_2))) (or ?v_33 (and ?v_36 ?v_35))) (or ?v_54 ?v_53)))))))))))))))))))))))))))))))))))))))))))
(check-sat)
(exit)
